136
100000
18331
5097
37492
34643
15126
622
5131
36494
11334
7403
2101
42558
6141
44852
36003
44766
14804
25857
38786
31627
1998
16158
21885
21414
40565
30942
9056
8399
15769
21574
12906
22358
20873
19582
15782
4132
37441
38029
36180
1186
7000
20821
8968
34000
41673
47303
40921
18400
3507
45597
16864
27960
6623
9261
44932
13560
4018
34272
35625
48867
31454
7885
28050
642
36141
42173
32529
31339
14229
22617
17376
21315
18018
19653
46760
17
2111
8960
26450
1474
24985
44380
6430
19116
46910
3479
8490
40196
40534
17761
35983
26182
8187
9597
16854
9231
3068
37095
13079
26012
41818
47026
5847
18057
24157
1559
37438
11105
49302
7395
47361
36003
31327
5700
34263
2114
37307
16151
30204
2799
12508
6150
2212
49007
20971
12443
15572
4539
48991
29009
957
15156
20837
15067
2673
44644
